p cnf 23 7
e 1 0
a 2 3 0
e 4 5 6 0
a 7 8 0
e 9 10 0
a 11 12 0
e 13 14 0
a 15 0
e 16 0
a 17 0
e 18 19 0
a 20 21 0
e 22 0
a 23 0
9 1 -4 -2 0
-4 -20 -5 15 -13 0
-15 -9 2 -1 0
7 23 -22 16 0
-8 3 0
17 7 10 8 14 0
-7 21 0
